(set-logic HORN)
(declare-fun state (Int (Array Int Int) (Array Int Int) (Array Int Int) (Array Int Int) Int Int (Array Int Int) (Array Int Int) Int Int Int Int Int Int Int Int Int Int Int Int Int Int Int Int Int Int Int Int Int Int Int Int Int Bool Bool Bool Bool Bool Int (Array Int Int) (Array Int Int)) Bool)
(assert (forall ((|A_16| Int) (|B_16| (Array Int Int)) (|C_16| (Array Int Int)) (|D_16| (Array Int Int)) (|E_16| (Array Int Int)) (|F_16| Int) (|G_16| Int) (|H_16| (Array Int Int)) (|I_16| (Array Int Int)) (|J_16| Int) (|K_16| Int) (|L_16| Int) (|M_16| Int) (|N_16| Int) (|J1_10| Int) (|P_16| Int) (|Q_16| Int) (|R_16| Int) (|S_16| Int) (|T_16| Int) (|U_16| Int) (|V_16| Int) (|W_16| Int) (|X_16| Int) (|Y_16| Int) (|Z_16| Int) (|A1_16| Int) (|B1_16| Int) (|K1_4| Int) (|L1_4| Int) (|E1_16| Int) (|F1_16| Int) (|G1_16| Int) (|H1_16| Int) (|I1_16| Bool) (|.loc.5| Bool) (|.loc.6| Bool) (|.loc.7| Bool) (|.loc.8| Bool) (|M1_1| Int) (|J1_3| (Array Int Int)) (|J1_0| (Array Int Int)) (|.x.836| Int) (|.x.834| (Array Int Int)) (|.x.832| Int) (|.x.830| (Array Int Int)) (|.x.826| Int) (|.x.828| (Array Int Int)) (|.x.840| Int) (|.x.855| Int) (|.x.854| Int) (|.x.827| (Array Int Int)) (|I1_24| Bool) (|.x.838| Int) (|.x.841| Int) (|.x.843| Int) (|.x.847| Int) (|.x.849| Int) (|.x.850| Int) (|.x.853| Int) (|.x.856| Int) (|.loc.10| Bool) (|.x.848| Int) (|.loc.9| Bool) (|.x.846| Int) (|.x.845| Int) (|.loc.11| Bool) (|.x.844| Int) (|.x.839| Int) (|.loc.12| Bool) (|.x.829| (Array Int Int)) (|.x.842| Int) (|.x.858| Int) (|.x.859| Int) (|.x.852| Int) (|.x.837| Int) (|.x.833| (Array Int Int)) (|.x.831| Int) (|.x.835| Int) (|.x.851| Int) (|.x.857| Int) (|.xtv.1| Int) (|.xtv.2| (Array Int Int)) (|.xtv.3| (Array Int Int))) (=> (and (and (and .loc.7 (and (not .loc.5) (not .loc.6))) (not .loc.8)) (and (and (and (and (and (= D_16 E_16) (not I1_16)) (= F_16 G_16)) (= J_16 K_16)) (= H_16 I_16)) (= B_16 C_16))) (state |A_16| |B_16| |C_16| |D_16| |E_16| |F_16| |G_16| |H_16| |I_16| |J_16| |K_16| |L_16| |M_16| |N_16| |J1_10| |P_16| |Q_16| |R_16| |S_16| |T_16| |U_16| |V_16| |W_16| |X_16| |Y_16| |Z_16| |A1_16| |B1_16| |K1_4| |L1_4| |E1_16| |F1_16| |G1_16| |H1_16| |I1_16| |.loc.5| |.loc.6| |.loc.7| |.loc.8| |M1_1| |J1_3| |J1_0|))))
(assert (forall ((|A_16| Int) (|B_16| (Array Int Int)) (|C_16| (Array Int Int)) (|D_16| (Array Int Int)) (|E_16| (Array Int Int)) (|F_16| Int) (|G_16| Int) (|H_16| (Array Int Int)) (|I_16| (Array Int Int)) (|J_16| Int) (|K_16| Int) (|L_16| Int) (|M_16| Int) (|N_16| Int) (|J1_10| Int) (|P_16| Int) (|Q_16| Int) (|R_16| Int) (|S_16| Int) (|T_16| Int) (|U_16| Int) (|V_16| Int) (|W_16| Int) (|X_16| Int) (|Y_16| Int) (|Z_16| Int) (|A1_16| Int) (|B1_16| Int) (|K1_4| Int) (|L1_4| Int) (|E1_16| Int) (|F1_16| Int) (|G1_16| Int) (|H1_16| Int) (|I1_16| Bool) (|.loc.5| Bool) (|.loc.6| Bool) (|.loc.7| Bool) (|.loc.8| Bool) (|M1_1| Int) (|J1_3| (Array Int Int)) (|J1_0| (Array Int Int)) (|.x.836| Int) (|.x.834| (Array Int Int)) (|.x.832| Int) (|.x.830| (Array Int Int)) (|.x.826| Int) (|.x.828| (Array Int Int)) (|.x.840| Int) (|.x.855| Int) (|.x.854| Int) (|.x.827| (Array Int Int)) (|I1_24| Bool) (|.x.838| Int) (|.x.841| Int) (|.x.843| Int) (|.x.847| Int) (|.x.849| Int) (|.x.850| Int) (|.x.853| Int) (|.x.856| Int) (|.loc.10| Bool) (|.x.848| Int) (|.loc.9| Bool) (|.x.846| Int) (|.x.845| Int) (|.loc.11| Bool) (|.x.844| Int) (|.x.839| Int) (|.loc.12| Bool) (|.x.829| (Array Int Int)) (|.x.842| Int) (|.x.858| Int) (|.x.859| Int) (|.x.852| Int) (|.x.837| Int) (|.x.833| (Array Int Int)) (|.x.831| Int) (|.x.835| Int) (|.x.851| Int) (|.x.857| Int) (|.xtv.1| Int) (|.xtv.2| (Array Int Int)) (|.xtv.3| (Array Int Int))) (=> (and (state |A_16| |B_16| |C_16| |D_16| |E_16| |F_16| |G_16| |H_16| |I_16| |J_16| |K_16| |L_16| |M_16| |N_16| |J1_10| |P_16| |Q_16| |R_16| |S_16| |T_16| |U_16| |V_16| |W_16| |X_16| |Y_16| |Z_16| |A1_16| |B1_16| |K1_4| |L1_4| |E1_16| |F1_16| |G1_16| |H1_16| |I1_16| |.loc.5| |.loc.6| |.loc.7| |.loc.8| |M1_1| |J1_3| |J1_0|) (let ((.def_52 (not .loc.5))) (let ((.def_53 (not .loc.6))) (let ((.def_56 (not .loc.8))) (let ((.def_89 (= .x.840 0))) (let ((.def_91 (<= F1_16 T_16))) (let ((.def_107 (= .x.840 .x.854))) (let ((.def_109 (or I1_16 (and (and (and (not .def_91) (= (select (select D_16 V_16) (+ P_16 (* 4 T_16))) .x.855)) (= (ite (<= 0 .x.855) 1 0) .x.854)) .def_107)))) (let ((.def_111 (not .loc.7))) (let ((.def_113 (= L1_4 .x.855))) (let ((.def_115 (= K1_4 .x.854))) (let ((.def_117 (= J1_10 .x.840))) (let ((.def_121 (= B_16 .x.827))) (let ((.def_125 (= M_16 .x.838))) (let ((.def_128 (= P_16 .x.841))) (let ((.def_131 (= R_16 .x.843))) (let ((.def_134 (= V_16 .x.847))) (let ((.def_137 (= X_16 .x.849))) (let ((.def_140 (= Y_16 .x.850))) (let ((.def_143 (= B1_16 .x.853))) (let ((.def_146 (= E1_16 .x.856))) (let ((.def_166 (= I1_16 I1_24))) (let ((.def_172 (= J1_10 0))) (let ((.def_174 (and .def_121 .def_125))) (let ((.def_176 (and .def_131 (and .def_128 .def_174)))) (let ((.def_177 (and .def_134 .def_176))) (let ((.def_181 (and .def_146 (and .def_143 (and .def_140 (and .def_137 .def_177)))))) (let ((.def_189 (not .loc.10))) (let ((.def_194 (= W_16 .x.848))) (let ((.def_203 (<= Q_16 T_16))) (let ((.def_218 (not .loc.9))) (let ((.def_223 (= U_16 .x.846))) (let ((.def_225 (= T_16 .x.845))) (let ((.def_244 (not .loc.11))) (let ((.def_251 (or I1_24 (= (+ T_16 (* (- 1) .x.845)) (- 1))))) (let ((.def_255 (= S_16 .x.844))) (let ((.def_276 (and .def_176 .def_255))) (let ((.def_283 (and .def_146 (and .def_143 (and .def_140 (and .def_137 (and .def_194 (and .def_134 (and .def_223 .def_276))))))))) (let ((.def_296 (or I1_16 (= .x.845 0)))) (let ((.def_312 (and I1_16 .def_121))) (let ((.def_313 (and .def_125 .def_312))) (let ((.def_325 (and .loc.5 (and .def_146 (and .def_143 (and .def_140 (and .def_137 (and .def_194 (and .def_134 (and .def_223 (and .def_225 (and .def_255 (and .def_131 (and .def_128 .def_313)))))))))))))) (let ((.def_326 (and .loc.6 .def_325))) (let ((.def_345 (and .def_146 (and .def_143 (and .def_140 (and .def_137 (and .def_194 (and .def_134 (and .def_223 (and .def_225 .def_276)))))))))) (let ((.def_346 (and .loc.5 .def_345))) (let ((.def_347 (and .loc.6 .def_346))) (let ((.def_379 (<= 100000 N_16))) (let ((.def_380 (or I1_16 .def_379))) (let ((.def_408 (= N_16 .x.839))) (let ((.def_412 (and .loc.6 .def_345))) (let ((.def_423 (not .loc.12))) (let ((.def_428 (or I1_16 (= (+ N_16 (* (- 1) .x.839)) (- 1))))) (let ((.def_496 (and .def_146 (and .def_143 (and .def_140 (and .def_137 (and .def_194 (and .def_134 (and .def_223 (and .def_225 (and .def_255 (and .def_131 (and .def_128 (and .def_174 .def_408)))))))))))))) (let ((.def_536 (= .x.839 0))) (let ((.def_552 (= D_16 .x.829))) (let ((.def_554 (= Q_16 .x.842))) (let ((.def_557 (= G1_16 .x.858))) (let ((.def_560 (= H1_16 .x.859))) (let ((.def_566 (<= 0 M1_1))) (let ((.def_596 (select D_16 M_16))) (let ((.def_597 (+ (* 4 N_16) X_16))) (let ((.def_600 (not .def_379))) (let ((.def_602 (or I1_16 (and (= M1_1 (select .def_596 .def_597)) .def_600)))) (let ((.def_606 (and .def_125 (and .def_121 .def_552)))) (let ((.def_620 (and .def_557 (and .def_146 (and .def_143 (and .def_140 (and .def_137 (and .def_194 (and .def_134 (and .def_223 (and .def_225 (and .def_255 (and .def_131 (and .def_554 (and .def_128 (and .def_408 .def_606)))))))))))))))) (let ((.def_635 (or I1_24 (not .def_566)))) (let ((.def_716 (= H_16 .x.833))) (let ((.def_718 (= F_16 .x.831))) (let ((.def_721 (= J_16 .x.835))) (let ((.def_725 (= Z_16 .x.851))) (let ((.def_729 (= F1_16 .x.857))) (let ((.def_767 (store J1_0 .x.838 1))) (let ((.def_768 (store .def_767 .x.847 1))) (let ((.def_812 (and (<= (- 2147483648) L_16) (and .def_600 (<= L_16 2147483647))))) (let ((.def_815 (store D_16 M_16 (store .def_596 .def_597 L_16)))) (let ((.def_848 (and .def_140 (and .def_137 (and .def_194 (and .def_134 (and .def_223 (and .def_225 (and .def_255 (and .def_131 (and .def_554 (and .def_128 (and .def_408 (and .def_125 (and .def_721 (and .def_716 (and .def_121 .def_718))))))))))))))))) (and (and (= K_16 .x.836) (and (= I_16 .x.834) (and (= G_16 .x.832) (and (= E_16 .x.830) (and (= A_16 .x.826) (= C_16 .x.828)))))) (or (or (or (and (or (or (or (or (or (and (or (or (or (or (or (or (and (or (or (or (or (or (or (or (or (or (and (or (and (or (and (or (and (or (and (or (and (and (or I1_16 .def_89) .def_109) .def_111) (and (and (and .loc.7 .def_113) .def_115) .def_117)) (and .def_53 (and .loc.5 (and (and (and (and (and (and (and (and (and .def_121 I1_24) .def_125) .def_128) .def_131) .def_134) .def_137) .def_140) .def_143) .def_146)))) (and (or I1_16 (and (= .x.827 (store (store (store B_16 M_16 0) V_16 0) E1_16 0)) (= .x.850 0))) (and (and (or I1_24 (= .x.843 .x.850)) (and .def_52 (and .def_117 (and .def_115 (and .def_113 (and .loc.6 .loc.7)))))) .def_166))) .loc.10) (and (or I1_16 .def_172) (and (and .def_166 (and .def_52 (and .def_117 (and .def_115 (and .def_113 (and .def_53 (and .loc.7 .def_181))))))) .def_189))) (and .def_194 .loc.9)) (and (or I1_16 (and (= .x.848 (select (select D_16 E1_16) (+ (* 4 T_16) B1_16))) (and .def_107 (and (not .def_203) (= .x.854 (ite (<= 0 .x.848) 0 1)))))) (and (and .def_189 (and .def_166 (and .def_113 (and .def_111 (and .loc.6 (and .loc.5 .def_181)))))) .def_218))) (and (and .loc.8 (and .def_223 .def_225)) .loc.11)) (and (and .def_56 (and (and .def_189 (and .def_166 (and .def_117 (and .def_115 (and .loc.9 (and .def_111 (and .def_53 (and .loc.5 (and .def_146 (and .def_143 (and .def_140 (and .def_137 (and .def_177 .def_194))))))))))))) .def_244)) .def_251)) .def_255) (and .def_251 (and .def_56 (and .def_244 (and .def_166 (and .def_52 (and .def_117 (and .def_115 (and .def_113 (and .loc.10 (and .loc.9 (and .def_111 (and .def_53 (and .def_146 (and .def_143 (and .def_140 (and .def_137 (and .def_134 (and .def_176 .def_223))))))))))))))))))) (and (and .def_244 (and .def_189 (and .def_166 (and .def_52 (and .def_117 (and .def_115 (and .def_113 (and .loc.9 (and .def_111 (and .def_53 (and .loc.8 .def_283))))))))))) .def_296)) (and .def_296 (and .def_244 (and .def_166 (and .def_52 (and .def_117 (and .def_115 (and .def_113 (and .loc.10 (and .loc.9 (and .def_111 (and .loc.8 (and .loc.6 .def_283))))))))))))) (and .def_218 (and .def_166 (and .def_117 (and .def_115 (and .def_113 (and .loc.11 (and .loc.10 (and .def_111 (and .loc.8 .def_326)))))))))) (and (or I1_16 .def_203) (and .def_218 (and .def_166 (and .def_117 (and .def_115 (and .def_113 (and .loc.11 (and .loc.10 (and .def_111 (and .loc.8 .def_347))))))))))) (and .def_56 (and .def_244 (and .def_218 (and .def_189 (and .def_166 (and .def_117 (and .def_115 (and .def_113 (and .loc.7 .def_326)))))))))) (and (and .def_56 (and .def_244 (and .def_218 (and .def_189 (and .def_166 (and .def_117 (and .def_115 (and .def_113 (and .loc.7 .def_347))))))))) .def_380)) (and .def_244 (and .def_218 (and .def_166 (and .def_117 (and .def_115 (and .def_113 (and .loc.10 (and .def_111 (and .def_53 (and .loc.8 .def_325))))))))))) (and (or I1_16 .def_91) (and .def_244 (and .def_218 (and .def_166 (and .def_117 (and .def_115 (and .def_113 (and .loc.10 (and .def_111 (and .def_53 (and .loc.8 .def_346)))))))))))) (and .def_408 .loc.12)) (and (and (and .def_56 (and .def_166 (and .def_52 (and .def_117 (and .def_115 (and .def_113 (and .loc.11 (and .loc.10 (and .loc.9 (and .def_111 .def_412)))))))))) .def_423) .def_428)) (and (or I1_24 (not .def_89)) (and .def_423 (and .def_244 (and .def_189 (and .def_166 (and .loc.9 (and .def_111 (and .def_53 (and .loc.8 (and .loc.5 (and .def_146 (and .def_143 (and .def_140 (and .def_137 (and .def_194 (and .def_134 (and .def_223 (and .def_225 (and .def_255 (and .def_131 (and .def_128 (and .def_408 (and .def_125 (and .def_109 .def_121))))))))))))))))))))))))) (and .def_423 (and .def_244 (and .def_189 (and .loc.9 (and .def_111 (and .def_53 (and .loc.8 (and .loc.5 (and .def_146 (and .def_143 (and .def_140 (and .def_137 (and .def_194 (and .def_134 (and .def_223 (and .def_225 (and .def_255 (and .def_131 (and .def_128 (and .def_408 (and .def_125 (and .def_121 (and .def_109 (and I1_16 I1_24))))))))))))))))))))))))) (and (or I1_16 (not .def_172)) (and .def_423 (and .def_244 (and .def_218 (and .def_189 (and .def_166 (and .def_52 (and .def_117 (and .def_115 (and .def_113 (and .def_53 (and .loc.8 (and .loc.7 .def_496)))))))))))))) (and .def_423 (and .def_244 (and .def_218 (and .def_189 (and .def_166 (and .def_117 (and .def_115 (and .def_113 (and .def_53 (and .loc.8 (and .loc.7 (and .loc.5 (and .def_146 (and .def_143 (and .def_140 (and .def_137 (and .def_194 (and .def_134 (and .def_223 (and .def_225 (and .def_255 (and .def_131 (and .def_128 (and .def_313 .def_408))))))))))))))))))))))))) (and (or I1_16 .def_536) (and .def_423 (and .def_56 (and .def_166 (and .def_52 (and .def_117 (and .def_115 (and .def_113 (and .loc.11 (and .loc.10 (and .loc.9 (and .loc.7 .def_412))))))))))))) (and (and (and .def_552 .def_554) .def_557) .def_560)) (and (and (or I1_24 (and (and (= (+ Q_16 (* (- 1) .x.842)) (- 1)) .def_566) (= .x.829 (store D_16 .x.856 (store (select D_16 .x.856) (+ (* 4 Q_16) .x.853) (select (select D_16 .x.838) (+ .x.849 (* 4 .x.839)))))))) (and .def_423 (and .def_56 (and .def_244 (and .def_218 (and .def_166 (and .def_117 (and .def_115 (and .def_113 (and .loc.10 (and .loc.7 (and .loc.6 (and .loc.5 .def_496))))))))))))) .def_602)) (and (and .def_602 (and .def_423 (and .def_56 (and .def_244 (and .def_218 (and .def_166 (and .def_117 (and .def_115 (and .def_113 (and .loc.10 (and .loc.7 (and .loc.6 (and .loc.5 .def_620))))))))))))) .def_635)) (and .def_423 (and .def_56 (and .def_218 (and .def_166 (and .def_117 (and .def_115 (and .def_113 (and .loc.11 (and .loc.10 (and .def_53 (and .loc.7 (and .loc.5 (and .def_560 (and .def_557 (and .def_146 (and .def_143 (and .def_140 (and .def_137 (and .def_194 (and .def_134 (and .def_223 (and .def_225 (and .def_255 (and .def_131 (and .def_554 (and .def_128 (and .def_408 (and .def_125 (and .def_312 .def_552)))))))))))))))))))))))))))))) (and .def_423 (and .def_380 (and .def_56 (and .def_218 (and .def_166 (and .def_117 (and .def_115 (and .def_113 (and .loc.11 (and .loc.10 (and .def_53 (and .loc.7 (and .loc.5 (and .def_560 .def_620))))))))))))))) (and .def_428 (and .def_423 (and .def_56 (and .def_189 (and .def_166 (and .def_117 (and .def_115 (and .def_113 (and .loc.11 (and .loc.9 (and .def_111 (and .loc.6 (and .loc.5 (and .def_560 (and .def_557 (and .def_146 (and .def_143 (and .def_140 (and .def_137 (and .def_194 (and .def_134 (and .def_223 (and .def_225 (and .def_255 (and .def_131 (and .def_554 (and .def_128 .def_606)))))))))))))))))))))))))))) (and (and (= A1_16 .x.852) (and (and (= L_16 .x.837) (and (and .def_716 .def_718) .def_721)) .def_725)) .def_729)) (and (or I1_16 (and (and (= .x.835 0) (= .x.831 0)) (= J1_0 (store B_16 0 0)))) (and (or I1_24 (and (and (and (and (and (and (and (and (and (and (and (and (and .def_536 (and (and (and (not (<= .x.826 .x.856)) (not (<= .x.826 .x.838))) (not (<= .x.826 .x.847))) (not (= .x.838 0)))) (= .x.842 0)) (= .x.857 0)) (= .x.841 0)) (= .x.853 0)) (not (= .x.856 0))) (= .x.849 0)) (not (= .x.847 0))) (= (select .def_768 .x.856) 0)) (= (select J1_0 .x.838) 0)) (= (select .def_767 .x.847) 0)) (= .x.833 (store (store (store H_16 .x.838 400000) .x.847 400000) .x.856 400000))) (= .x.827 (store .def_768 .x.856 1)))) (and .def_423 (and .def_56 (and .def_189 (and .def_166 (and .def_52 (and .def_117 (and .def_115 (and .loc.11 (and .loc.9 (and .def_53 (and .loc.7 (and .def_131 .def_552))))))))))))))) (and (or I1_16 (and (and (= M1_1 (select (select J1_3 M_16) .def_597)) .def_812) (= J1_3 .def_815))) (and (or I1_24 (and (and .def_566 (= (+ F1_16 (* (- 1) .x.857)) (- 1))) (= .x.829 (store J1_3 .x.847 (store (select J1_3 .x.847) (+ (* 4 F1_16) .x.841) (select (select J1_3 .x.838) (+ .x.849 (* 4 .x.839)))))))) (and .def_423 (and .def_56 (and .def_244 (and .def_166 (and .def_117 (and .def_115 (and .def_113 (and .loc.10 (and .loc.9 (and .def_53 (and .loc.7 (and .loc.5 (and .def_560 (and .def_557 (and .def_146 (and .def_143 .def_848))))))))))))))))))) (and (or I1_16 (and (= .x.829 .def_815) (and .def_812 (= M1_1 (select (select .x.829 M_16) .def_597))))) (and .def_635 (and .def_423 (and .def_56 (and .def_244 (and .def_166 (and .def_117 (and .def_115 (and .def_113 (and .loc.10 (and .loc.9 (and .def_53 (and .loc.7 (and .loc.5 (and .def_560 (and .def_557 (and .def_729 (and .def_146 (and .def_143 (and .def_725 .def_848)))))))))))))))))))))))))))))))))))))))))))))))))))))))))))))))))))))))))))))))))))))))))))))))))) (state |.x.826| |.x.827| |.x.828| |.x.829| |.x.830| |.x.831| |.x.832| |.x.833| |.x.834| |.x.835| |.x.836| |.x.837| |.x.838| |.x.839| |.x.840| |.x.841| |.x.842| |.x.843| |.x.844| |.x.845| |.x.846| |.x.847| |.x.848| |.x.849| |.x.850| |.x.851| |.x.852| |.x.853| |.x.854| |.x.855| |.x.856| |.x.857| |.x.858| |.x.859| |I1_24| |.loc.9| |.loc.10| |.loc.11| |.loc.12| |.xtv.1| |.xtv.2| |.xtv.3|))))
(assert (forall ((|A_16| Int) (|B_16| (Array Int Int)) (|C_16| (Array Int Int)) (|D_16| (Array Int Int)) (|E_16| (Array Int Int)) (|F_16| Int) (|G_16| Int) (|H_16| (Array Int Int)) (|I_16| (Array Int Int)) (|J_16| Int) (|K_16| Int) (|L_16| Int) (|M_16| Int) (|N_16| Int) (|J1_10| Int) (|P_16| Int) (|Q_16| Int) (|R_16| Int) (|S_16| Int) (|T_16| Int) (|U_16| Int) (|V_16| Int) (|W_16| Int) (|X_16| Int) (|Y_16| Int) (|Z_16| Int) (|A1_16| Int) (|B1_16| Int) (|K1_4| Int) (|L1_4| Int) (|E1_16| Int) (|F1_16| Int) (|G1_16| Int) (|H1_16| Int) (|I1_16| Bool) (|.loc.5| Bool) (|.loc.6| Bool) (|.loc.7| Bool) (|.loc.8| Bool) (|M1_1| Int) (|J1_3| (Array Int Int)) (|J1_0| (Array Int Int)) (|.x.836| Int) (|.x.834| (Array Int Int)) (|.x.832| Int) (|.x.830| (Array Int Int)) (|.x.826| Int) (|.x.828| (Array Int Int)) (|.x.840| Int) (|.x.855| Int) (|.x.854| Int) (|.x.827| (Array Int Int)) (|I1_24| Bool) (|.x.838| Int) (|.x.841| Int) (|.x.843| Int) (|.x.847| Int) (|.x.849| Int) (|.x.850| Int) (|.x.853| Int) (|.x.856| Int) (|.loc.10| Bool) (|.x.848| Int) (|.loc.9| Bool) (|.x.846| Int) (|.x.845| Int) (|.loc.11| Bool) (|.x.844| Int) (|.x.839| Int) (|.loc.12| Bool) (|.x.829| (Array Int Int)) (|.x.842| Int) (|.x.858| Int) (|.x.859| Int) (|.x.852| Int) (|.x.837| Int) (|.x.833| (Array Int Int)) (|.x.831| Int) (|.x.835| Int) (|.x.851| Int) (|.x.857| Int) (|.xtv.1| Int) (|.xtv.2| (Array Int Int)) (|.xtv.3| (Array Int Int))) (=> (state |A_16| |B_16| |C_16| |D_16| |E_16| |F_16| |G_16| |H_16| |I_16| |J_16| |K_16| |L_16| |M_16| |N_16| |J1_10| |P_16| |Q_16| |R_16| |S_16| |T_16| |U_16| |V_16| |W_16| |X_16| |Y_16| |Z_16| |A1_16| |B1_16| |K1_4| |L1_4| |E1_16| |F1_16| |G1_16| |H1_16| |I1_16| |.loc.5| |.loc.6| |.loc.7| |.loc.8| |M1_1| |J1_3| |J1_0|) (not (and I1_16 (and .loc.8 (and .loc.7 (and .loc.5 .loc.6))))))))
(check-sat)
